(set-logic QF_NRA)
(set-info :source |
From termination analysis of term rewriting.

Submitted by Harald Roman Zankl <Harald.Zankl@uibk.ac.at>

|)
(set-info :smt-lib-version 2.0)
(set-info :category "industrial")
(set-info :status sat)
(declare-fun x6 () Real)
(declare-fun x23 () Real)
(declare-fun x40 () Real)
(declare-fun x13 () Real)
(declare-fun x30 () Real)
(declare-fun x3 () Real)
(declare-fun x20 () Real)
(declare-fun x37 () Real)
(declare-fun x10 () Real)
(declare-fun x27 () Real)
(declare-fun x44 () Real)
(declare-fun x0 () Real)
(declare-fun x17 () Real)
(declare-fun x34 () Real)
(declare-fun x7 () Real)
(declare-fun x24 () Real)
(declare-fun x41 () Real)
(declare-fun x14 () Real)
(declare-fun x31 () Real)
(declare-fun x4 () Real)
(declare-fun x21 () Real)
(declare-fun x38 () Real)
(declare-fun x11 () Real)
(declare-fun x28 () Real)
(declare-fun x1 () Real)
(declare-fun x18 () Real)
(declare-fun x35 () Real)
(declare-fun x8 () Real)
(declare-fun x25 () Real)
(declare-fun x42 () Real)
(declare-fun x15 () Real)
(declare-fun x32 () Real)
(declare-fun x5 () Real)
(declare-fun x22 () Real)
(declare-fun x39 () Real)
(declare-fun x12 () Real)
(declare-fun x29 () Real)
(declare-fun x2 () Real)
(declare-fun x19 () Real)
(declare-fun x36 () Real)
(declare-fun x9 () Real)
(declare-fun x26 () Real)
(declare-fun x43 () Real)
(declare-fun x16 () Real)
(declare-fun x33 () Real)
(assert (>= x6 0))
(assert (>= x23 0))
(assert (>= x40 0))
(assert (>= x13 0))
(assert (>= x30 0))
(assert (>= x3 0))
(assert (>= x20 0))
(assert (>= x37 0))
(assert (>= x10 0))
(assert (>= x27 0))
(assert (>= x44 0))
(assert (>= x0 0))
(assert (>= x17 0))
(assert (>= x34 0))
(assert (>= x7 0))
(assert (>= x24 0))
(assert (>= x41 0))
(assert (>= x14 0))
(assert (>= x31 0))
(assert (>= x4 0))
(assert (>= x21 0))
(assert (>= x38 0))
(assert (>= x11 0))
(assert (>= x28 0))
(assert (>= x1 0))
(assert (>= x18 0))
(assert (>= x35 0))
(assert (>= x8 0))
(assert (>= x25 0))
(assert (>= x42 0))
(assert (>= x15 0))
(assert (>= x32 0))
(assert (>= x5 0))
(assert (>= x22 0))
(assert (>= x39 0))
(assert (>= x12 0))
(assert (>= x29 0))
(assert (>= x2 0))
(assert (>= x19 0))
(assert (>= x36 0))
(assert (>= x9 0))
(assert (>= x26 0))
(assert (>= x43 0))
(assert (>= x16 0))
(assert (>= x33 0))
(assert (let ((?v_0 (+ x0 (+ (* x1 x3) (* x2 x4)))) (?v_1 (+ (+ x0 (+ (* x1 x13) (* x2 x14))) (+ (* x5 x19) (* x6 x20)))) (?v_9 (+ x25 (+ (* x27 x25) (* x28 x26)))) (?v_10 (+ x26 (+ (* x29 x25) (* x30 x26))))) (let ((?v_2 (+ x10 (+ (* x11 ?v_9) (* x12 ?v_10)))) (?v_12 (+ (* x27 x27) (* x28 x29))) (?v_13 (+ (* x29 x27) (* x30 x29))) (?v_14 (+ (* x27 x28) (* x28 x30))) (?v_15 (+ (* x29 x28) (* x30 x30)))) (let ((?v_18 (and (and (and (and (and (> ?v_0 x7) (>= ?v_0 x7)) (and (>= x5 x8) (>= x6 x9))) (and (and (> ?v_0 x10) (>= ?v_0 x10)) (and (>= x5 x11) (>= x6 x12)))) (and (and (> ?v_0 ?v_1) (>= ?v_0 ?v_1)) (and (>= x5 (+ (+ (* x1 x15) (* x2 x17)) (+ (* x5 x21) (* x6 x23)))) (>= x6 (+ (+ (* x1 x16) (* x2 x18)) (+ (* x5 x22) (* x6 x24))))))) (and (and (> ?v_2 x10) (>= ?v_2 x10)) (and (>= (+ (* x11 ?v_12) (* x12 ?v_13)) x11) (>= (+ (* x11 ?v_14) (* x12 ?v_15)) x12))))) (?v_4 (+ (+ x31 (+ (* x33 x13) (* x34 x14))) (+ (* x37 x19) (* x38 x20)))) (?v_3 (+ x31 (+ (* x33 x3) (* x34 x4)))) (?v_5 (+ x13 (+ (* x15 x41) (* x16 x42)))) (?v_7 (+ x25 (+ (* x27 x41) (* x28 x42)))) (?v_8 (+ x26 (+ (* x29 x41) (* x30 x42))))) (let ((?v_6 (+ x13 (+ (* x15 ?v_7) (* x16 ?v_8)))) (?v_11 (+ x13 (+ (* x15 ?v_9) (* x16 ?v_10)))) (?v_16 (+ x19 (+ (* x21 x41) (* x22 x42)))) (?v_17 (+ x19 (+ (* x21 x25) (* x22 x26))))) (and (and (and (and (and (and (and ?v_18 (and (and (> ?v_3 ?v_4) (and (>= ?v_3 ?v_4) (>= (+ x32 (+ (* x35 x3) (* x36 x4))) (+ (+ x32 (+ (* x35 x13) (* x36 x14))) (+ (* x39 x19) (* x40 x20)))))) (and (and (and (>= x37 (+ (+ (* x33 x15) (* x34 x17)) (+ (* x37 x21) (* x38 x23)))) (>= x38 (+ (+ (* x33 x16) (* x34 x18)) (+ (* x37 x22) (* x38 x24))))) (>= x39 (+ (+ (* x35 x15) (* x36 x17)) (+ (* x39 x21) (* x40 x23))))) (>= x40 (+ (+ (* x35 x16) (* x36 x18)) (+ (* x39 x22) (* x40 x24))))))) (and (> ?v_5 x43) (and (>= ?v_5 x43) (>= (+ x14 (+ (* x17 x41) (* x18 x42))) x44)))) (and (> ?v_6 x3) (and (>= ?v_6 x3) (>= (+ x14 (+ (* x17 ?v_7) (* x18 ?v_8))) x4)))) (and (and (> ?v_11 x13) (and (>= ?v_11 x13) (>= (+ x14 (+ (* x17 ?v_9) (* x18 ?v_10))) x14))) (and (and (and (>= (+ (* x15 ?v_12) (* x16 ?v_13)) x15) (>= (+ (* x15 ?v_14) (* x16 ?v_15)) x16)) (>= (+ (* x17 ?v_12) (* x18 ?v_13)) x17)) (>= (+ (* x17 ?v_14) (* x18 ?v_15)) x18)))) (and (> ?v_16 x41) (and (>= ?v_16 x41) (>= (+ x20 (+ (* x23 x41) (* x24 x42))) x42)))) (and (and (> ?v_17 0) (and (>= ?v_17 0) (>= (+ x20 (+ (* x23 x25) (* x24 x26))) 0))) (and (and (and (>= (+ (* x21 x27) (* x22 x29)) 1) (>= (+ (* x21 x28) (* x22 x30)) 0)) (>= (+ (* x23 x27) (* x24 x29)) 0)) (>= (+ (* x23 x28) (* x24 x30)) 1)))) ?v_18))))))
(check-sat)
(exit)
